/*********************************************
 * OPL 12.6.0.0 Data
 * Author: Adrian Rodriguez Bazaga, Pau Rodriguez Esmerats
 * Creation Date: 10/12/2017 at 12:53:58
 *********************************************/

maxConsec=16;
maxPresence=24;
maxHours=8;
minHours=1;
hours=24;
demand= [26 40 40 28 33 22 20 33 30 35 33 25 14 7 1 0 0 0 0 0 0 0 0 0  ];
nNurses=64;
centroides=2;
